NAME          ClpDefau
ROWS
 N  OBJROW
 L  R_264_0
 L  R_264_1
 L  R_264_2
 L  R_264_3
 L  R_264_4
 L  R_264_5
 L  R_264_6
 L  R_264_7
 L  R_264_8
 L  R_264_9
 L  R_264_10
 L  R_264_11
 L  R_264_12
 L  R_264_13
 L  R_264_14
 L  R_264_15
COLUMNS
    x_0       OBJROW     -1.           R_264_4   4.          
    x_0       R_264_10  23.            R_264_12  42.         
    x_0       R_264_13  66.         
    x_1       OBJROW     -2.           R_264_1   58.         
    x_1       R_264_10  97.         
    x_2       OBJROW     -2.        
    x_3       OBJROW     -6.        
    x_4       OBJROW     -3.           R_264_0   25.         
    x_4       R_264_2   74.            R_264_7   67.         
    x_4       R_264_8   35.            R_264_14  47.         
    x_5       OBJROW     -5.           R_264_1   15.         
    x_5       R_264_3   94.            R_264_6   21.         
    x_5       R_264_9   76.            R_264_10  32.         
    x_5       R_264_11  5.             R_264_12  79.         
    x_6       OBJROW     -5.           R_264_4   34.         
    x_6       R_264_12  58.         
    x_7       OBJROW     -10.          R_264_12  22.         
    x_7       R_264_13  82.         
    x_8       OBJROW     -4.           R_264_1   32.         
    x_8       R_264_12  5.             R_264_14  66.         
    x_9       OBJROW     -10.          R_264_1   24.         
    x_9       R_264_3   4.             R_264_15  54.         
    x_10      OBJROW     -1.           R_264_5   16.         
    x_10      R_264_10  88.            R_264_12  26.         
    x_10      R_264_15  58.         
    x_11      OBJROW     -10.          R_264_0   82.         
    x_11      R_264_4   37.            R_264_5   40.         
    x_11      R_264_7   97.            R_264_9   48.         
    x_11      R_264_14  16.            R_264_15  79.         
    x_12      OBJROW     -3.           R_264_4   85.         
    x_12      R_264_6   91.         
    x_13      OBJROW     -7.           R_264_11  46.         
    x_13      R_264_12  70.            R_264_13  54.         
    x_14      OBJROW     -7.           R_264_3   38.         
    x_14      R_264_8   37.            R_264_9   70.         
    x_15      OBJROW     -9.           R_264_0   21.         
    x_15      R_264_7   57.            R_264_13  36.         
RHS
    RHS       R_264_0   145.           R_264_1   205.        
    RHS       R_264_2   160.           R_264_3   132.        
    RHS       R_264_4   180.           R_264_5   124.        
    RHS       R_264_6   208.           R_264_7   60.         
    RHS       R_264_8   97.            R_264_9   176.        
    RHS       R_264_10  199.           R_264_11  88.         
    RHS       R_264_12  143.           R_264_13  210.        
    RHS       R_264_14  137.           R_264_15  202.        
BOUNDS
 UI BOUND     x_0       10.         
 UI BOUND     x_1       10.         
 UI BOUND     x_2       10.         
 UI BOUND     x_3       10.         
 UI BOUND     x_4       10.         
 UI BOUND     x_5       10.         
 UI BOUND     x_6       10.         
 UI BOUND     x_7       10.         
 UI BOUND     x_8       10.         
 UI BOUND     x_9       10.         
 UI BOUND     x_10      10.         
 UI BOUND     x_11      10.         
 UI BOUND     x_12      10.         
 UI BOUND     x_13      10.         
 UI BOUND     x_14      10.         
 UI BOUND     x_15      10.         
ENDATA
